Version identifier: 22.1.1.0 | 2022-11-28 | 9160aff4d
CPXPARAM_Read_DataCheck                          1
CPXPARAM_MIP_Strategy_NodeSelect                 0
CPXPARAM_MIP_Strategy_HeuristicFreq              1
CPXPARAM_TimeLimit                               388
Tried aggregator 2 times.
MIP Presolve eliminated 132 rows and 853 columns.
MIP Presolve added 6 rows and 0 columns.
MIP Presolve modified 31379 coefficients.
Aggregator did 3 substitutions.
Reduced MIP has 5850 rows, 8059 columns, and 42260 nonzeros.
Reduced MIP has 7985 binaries, 0 generals, 0 SOSs, and 0 indicators.
Presolve time = 0.03 sec. (52.54 ticks)
Found incumbent of value 20089.000000 after 0.08 sec. (107.96 ticks)
Probing time = 0.02 sec. (6.91 ticks)
Tried aggregator 1 time.
Detecting symmetries...
Reduced MIP has 5850 rows, 8059 columns, and 42260 nonzeros.
Reduced MIP has 7985 binaries, 0 generals, 0 SOSs, and 0 indicators.
Presolve time = 0.02 sec. (23.56 ticks)
Probing time = 0.02 sec. (6.93 ticks)
Clique table members: 6689.
MIP emphasis: balance optimality and feasibility.
MIP search method: dynamic search.
Parallel mode: deterministic, using up to 12 threads.
Root relaxation solution time = 0.17 sec. (62.00 ticks)

        Nodes                                         Cuts/
   Node  Left     Objective  IInf  Best Integer    Best Bound    ItCnt     Gap

*     0+    0                        20089.0000        0.0000           100.00%
*     0+    0                        13516.0000        0.0000           100.00%
      0     0      808.3605   124    13516.0000      808.3605      980   94.02%
      0     0      924.4000   124    13516.0000     Cuts: 562     1213   93.16%
      0     0      934.1200    76    13516.0000     Cuts: 153     1326   93.09%
      0     0      934.1200    78    13516.0000     Cuts: 191     1345   93.09%
      0     0      934.1200    76    13516.0000       Cuts: 6     1353   93.09%
*     0+    0                         2581.0000      934.1200            63.81%
Detecting symmetries...
      0     2      934.1200    75     2581.0000      934.1200     1353   63.81%
Elapsed time = 1.89 sec. (1795.54 ticks, tree = 0.02 MB, solutions = 3)
      8     6      939.8650    64     2581.0000      935.1029     1729   63.77%
     38    24      938.2716    99     2581.0000      935.4394     3674   63.76%
    140   107      965.9610    44     2581.0000      935.4403     9051   63.76%
    550   335      978.6657    70     2581.0000      935.4403    14645   63.76%
    856   660     1018.8203    78     2581.0000      935.4403    22164   63.76%
    902   867     1018.8203    78     2581.0000      935.4403    27769   63.76%
   1028   988      978.4771    32     2581.0000      935.4403    32361   63.76%
   1557  1105      979.8123   110     2581.0000      935.4403    34589   63.76%
   2034  1441     1015.8665    67     2581.0000      935.4403    38978   63.76%

Performing restart 1

Repeating presolve.
Tried aggregator 1 time.
MIP Presolve modified 12420 coefficients.
Reduced MIP has 5850 rows, 8059 columns, and 38992 nonzeros.
Reduced MIP has 7985 binaries, 0 generals, 0 SOSs, and 0 indicators.
Presolve time = 0.02 sec. (30.14 ticks)
Tried aggregator 1 time.
Reduced MIP has 5850 rows, 8059 columns, and 38992 nonzeros.
Reduced MIP has 7985 binaries, 0 generals, 0 SOSs, and 0 indicators.
Presolve time = 0.02 sec. (24.88 ticks)
Represolve time = 0.18 sec. (135.92 ticks)
   2115     0      936.3000    62     2581.0000     Cuts: 208    53506   63.72%
   2115     0      936.6000    77     2581.0000      Cuts: 73    53552   63.71%
*  2115+    0                         1360.0000      936.6000            31.13%
   2115     0      936.6000    73     1360.0000      Cuts: 99    53568   31.13%
   2115     0      936.6000    75     1360.0000       Cuts: 7    53578   31.13%
   2115     0      936.8000    99     1360.0000      Cuts: 10    53645   31.12%
   2115     0      936.8262   104     1360.0000     Cuts: 418    53790   31.12%
*  2115+    0                         1110.0000      936.8262            15.60%
*  2115+    0                         1091.0000      936.8262            14.13%
   2115     0  -1.00000e+75     0     1091.0000      936.8262    53790   14.13%
*  2115+    0                         1087.0000      936.8262            13.82%
*  2115+    0                         1085.0000      936.8262            13.66%
*  2115+    0                         1082.0000      936.8262            13.42%
*  2115+    0                         1072.0000      936.8262            12.61%
   2115     0  -1.00000e+75     0     1072.0000      936.8262    53790   12.61%

Repeating presolve.
Tried aggregator 1 time.
MIP Presolve eliminated 4 rows and 3263 columns.
MIP Presolve modified 3910 coefficients.
Reduced MIP has 5846 rows, 4796 columns, and 65803 nonzeros.
Reduced MIP has 4722 binaries, 0 generals, 0 SOSs, and 0 indicators.
Presolve time = 0.03 sec. (45.90 ticks)
Tried aggregator 1 time.
MIP Presolve eliminated 100 rows and 0 columns.
MIP Presolve modified 1463 coefficients.
Reduced MIP has 5746 rows, 4796 columns, and 64682 nonzeros.
Reduced MIP has 4722 binaries, 0 generals, 0 SOSs, and 0 indicators.
Presolve time = 0.04 sec. (57.25 ticks)
Represolve time = 0.25 sec. (247.44 ticks)
   2115     0      936.8920   103     1072.0000     Cuts: 213    55164   12.60%
*  2115+    0                         1068.0000      936.8920            12.28%
   2115     0      938.1864   100     1068.0000     Cuts: 104    55288   12.15%
   2115     0      939.0250    91     1068.0000      Cuts: 87    55337   12.08%
   2115     0      939.6714    84     1068.0000     Cuts: 109    55439   12.02%
*  2115+    0                         1066.0000      939.6714            11.85%
*  2115+    0                         1040.0000      939.6714             9.65%
   2115     0  -1.00000e+75     0     1040.0000      939.6714    55439    9.65%
   2115     0      939.8084    87     1040.0000      Cuts: 62    55514    9.63%
   2115     0      939.9090   108     1040.0000      Cuts: 59    55557    9.62%
   2115     0      940.2463   121     1040.0000     Cuts: 178    55683    9.59%
   2115     0      940.5671   146     1040.0000     Cuts: 156    55796    9.56%
   2115     0      940.5674   148     1040.0000     Cuts: 191    55849    9.56%
*  2115+    0                         1024.0000      940.5674             8.15%
   2115     0      940.5674   146     1024.0000     Cuts: 114    55880    8.15%
*  2115+    0                          969.0000      940.5674             2.93%
   2115     0  -1.00000e+75     0      969.0000      940.5674    55880    2.93%
   2115     0      940.9753   136      969.0000      Cuts: 23    55977    2.89%
   2115     0      941.1020   149      969.0000     Cuts: 235    56148    2.88%
   2115     0      941.1368   152      969.0000     Cuts: 117    56217    2.88%
   2115     0      941.1405   159      969.0000      Cuts: 68    56294    2.88%
   2115     0      941.1427   152      969.0000       Cuts: 9    56310    2.87%
   2115     0      941.1470   165      969.0000      Cuts: 29    56340    2.87%
   2115     2      941.1470   165      969.0000      941.1470    56340    2.87%
Elapsed time = 30.75 sec. (32893.36 ticks, tree = 0.02 MB, solutions = 15)
   2119     5      944.8000     8      969.0000      941.6586    57323    2.82%
   2176    49      948.6667    51      969.0000      942.6333    64143    2.72%
   2421   219      958.1392    23      969.0000      942.6333    73198    2.72%
   3172   493        cutoff            969.0000      942.6333    87928    2.72%
   4594   430      967.7023    32      969.0000      942.6333   115730    2.72%
   5565   340      960.2589    72      969.0000      942.6333   154601    2.72%
   6834   509    infeasible            969.0000      942.6333   179833    2.72%
   8076   367      963.7000    68      969.0000      942.6333   231411    2.72%
   9548   323        cutoff            969.0000      942.6333   255860    2.72%
  10218   288      958.7803    24      969.0000      942.6333   286214    2.72%
Elapsed time = 44.81 sec. (42470.06 ticks, tree = 0.39 MB, solutions = 15)
* 11163+  329                          965.0000      942.6333             2.32%
  11534   347        cutoff            965.0000      942.6333   328900    2.32%
* 11926   208      integral     0      955.0000      942.6333   348234    1.29%
* 12040   194      integral     0      954.0000      942.6333   348725    1.19%
* 12690    86      integral     0      953.0000      942.6333   385121    1.09%
  12778   103        cutoff            953.0000      942.6333   392773    1.09%

GUB cover cuts applied:  13
Clique cuts applied:  26
Cover cuts applied:  84
Implied bound cuts applied:  7
Flow cuts applied:  4
Mixed integer rounding cuts applied:  87
Zero-half cuts applied:  29
Multi commodity flow cuts applied:  2
Lift and project cuts applied:  8
Gomory fractional cuts applied:  11

Root node processing (before b&c):
  Real time             =    1.88 sec. (1793.74 ticks)
Parallel b&c, 12 threads:
  Real time             =   47.18 sec. (43716.08 ticks)
  Sync time (average)   =    3.94 sec.
  Wait time (average)   =    0.04 sec.
                          ------------
Total (root+branch&cut) =   49.06 sec. (45509.82 ticks)
